p cnf 92 449
1 2 3 0
4 5 6 7 0
8 9 10 0
17 18 19 20 0
21 22 23 24 0
25 26 27 28 29 30 0
31 32 33 34 0
35 36 37 38 39 40 41 42 0
43 44 45 46 47 48 0
49 50 51 0
52 53 54 55 56 57 58 0
59 60 61 62 63 0
64 65 66 0
67 68 69 70 71 72 0
73 74 75 76 0
77 78 79 80 0
81 82 83 84 85 0
86 87 88 89 0
90 91 92 0
-11 -17 0
-11 -31 0
-11 -35 0
-11 -43 0
-11 -49 0
-11 -64 0
-11 -67 0
-11 -73 0
-11 -86 0
-11 -90 0
-17 -31 0
-17 -35 0
-17 -43 0
-17 -49 0
-17 -64 0
-17 -67 0
-17 -73 0
-17 -86 0
-17 -90 0
-31 -35 0
-31 -43 0
-31 -49 0
-31 -64 0
-31 -67 0
-31 -73 0
-31 -86 0
-31 -90 0
-35 -43 0
-35 -49 0
-35 -64 0
-35 -67 0
-35 -73 0
-35 -86 0
-35 -90 0
-43 -49 0
-43 -64 0
-43 -67 0
-43 -73 0
-43 -86 0
-43 -90 0
-49 -64 0
-49 -67 0
-49 -73 0
-49 -86 0
-49 -90 0
-64 -67 0
-64 -73 0
-64 -86 0
-64 -90 0
-67 -73 0
-67 -86 0
-67 -90 0
-73 -86 0
-73 -90 0
-86 -90 0
-8 -12 0
-8 -18 0
-8 -25 0
-8 -36 0
-8 -44 0
-8 -50 0
-8 -68 0
-8 -77 0
-8 -81 0
-12 -18 0
-12 -25 0
-12 -36 0
-12 -44 0
-12 -50 0
-12 -68 0
-12 -77 0
-12 -81 0
-18 -25 0
-18 -36 0
-18 -44 0
-18 -50 0
-18 -68 0
-18 -77 0
-18 -81 0
-25 -36 0
-25 -44 0
-25 -50 0
-25 -68 0
-25 -77 0
-25 -81 0
-36 -44 0
-36 -50 0
-36 -68 0
-36 -77 0
-36 -81 0
-44 -50 0
-44 -68 0
-44 -77 0
-44 -81 0
-50 -68 0
-50 -77 0
-50 -81 0
-68 -77 0
-68 -81 0
-77 -81 0
-1 -13 0
-1 -21 0
-1 -37 0
-1 -45 0
-1 -52 0
-1 -59 0
-1 -65 0
-1 -69 0
-1 -82 0
-13 -21 0
-13 -37 0
-13 -45 0
-13 -52 0
-13 -59 0
-13 -65 0
-13 -69 0
-13 -82 0
-21 -37 0
-21 -45 0
-21 -52 0
-21 -59 0
-21 -65 0
-21 -69 0
-21 -82 0
-37 -45 0
-37 -52 0
-37 -59 0
-37 -65 0
-37 -69 0
-37 -82 0
-45 -52 0
-45 -59 0
-45 -65 0
-45 -69 0
-45 -82 0
-52 -59 0
-52 -65 0
-52 -69 0
-52 -82 0
-59 -65 0
-59 -69 0
-59 -82 0
-65 -69 0
-65 -82 0
-69 -82 0
-14 -19 0
-14 -26 0
-14 -32 0
-14 -38 0
-14 -51 0
-14 -53 0
-14 -60 0
-14 -74 0
-14 -78 0
-14 -87 0
-19 -26 0
-19 -32 0
-19 -38 0
-19 -51 0
-19 -53 0
-19 -60 0
-19 -74 0
-19 -78 0
-19 -87 0
-26 -32 0
-26 -38 0
-26 -51 0
-26 -53 0
-26 -60 0
-26 -74 0
-26 -78 0
-26 -87 0
-32 -38 0
-32 -51 0
-32 -53 0
-32 -60 0
-32 -74 0
-32 -78 0
-32 -87 0
-38 -51 0
-38 -53 0
-38 -60 0
-38 -74 0
-38 -78 0
-38 -87 0
-51 -53 0
-51 -60 0
-51 -74 0
-51 -78 0
-51 -87 0
-53 -60 0
-53 -74 0
-53 -78 0
-53 -87 0
-60 -74 0
-60 -78 0
-60 -87 0
-74 -78 0
-74 -87 0
-78 -87 0
-2 -4 0
-2 -9 0
-2 -15 0
-2 -22 0
-2 -27 0
-2 -33 0
-2 -39 0
-2 -54 0
-2 -61 0
-2 -83 0
-2 -91 0
-4 -9 0
-4 -15 0
-4 -22 0
-4 -27 0
-4 -33 0
-4 -39 0
-4 -54 0
-4 -61 0
-4 -83 0
-4 -91 0
-9 -15 0
-9 -22 0
-9 -27 0
-9 -33 0
-9 -39 0
-9 -54 0
-9 -61 0
-9 -83 0
-9 -91 0
-15 -22 0
-15 -27 0
-15 -33 0
-15 -39 0
-15 -54 0
-15 -61 0
-15 -83 0
-15 -91 0
-22 -27 0
-22 -33 0
-22 -39 0
-22 -54 0
-22 -61 0
-22 -83 0
-22 -91 0
-27 -33 0
-27 -39 0
-27 -54 0
-27 -61 0
-27 -83 0
-27 -91 0
-33 -39 0
-33 -54 0
-33 -61 0
-33 -83 0
-33 -91 0
-39 -54 0
-39 -61 0
-39 -83 0
-39 -91 0
-54 -61 0
-54 -83 0
-54 -91 0
-61 -83 0
-61 -91 0
-83 -91 0
-3 -20 0
-3 -34 0
-3 -40 0
-3 -55 0
-3 -62 0
-3 -70 0
-3 -84 0
-3 -88 0
-20 -34 0
-20 -40 0
-20 -55 0
-20 -62 0
-20 -70 0
-20 -84 0
-20 -88 0
-34 -40 0
-34 -55 0
-34 -62 0
-34 -70 0
-34 -84 0
-34 -88 0
-40 -55 0
-40 -62 0
-40 -70 0
-40 -84 0
-40 -88 0
-55 -62 0
-55 -70 0
-55 -84 0
-55 -88 0
-62 -70 0
-62 -84 0
-62 -88 0
-70 -84 0
-70 -88 0
-84 -88 0
-5 -23 0
-5 -28 0
-5 -41 0
-5 -46 0
-5 -56 0
-5 -63 0
-5 -71 0
-5 -79 0
-5 -89 0
-23 -28 0
-23 -41 0
-23 -46 0
-23 -56 0
-23 -63 0
-23 -71 0
-23 -79 0
-23 -89 0
-28 -41 0
-28 -46 0
-28 -56 0
-28 -63 0
-28 -71 0
-28 -79 0
-28 -89 0
-41 -46 0
-41 -56 0
-41 -63 0
-41 -71 0
-41 -79 0
-41 -89 0
-46 -56 0
-46 -63 0
-46 -71 0
-46 -79 0
-46 -89 0
-56 -63 0
-56 -71 0
-56 -79 0
-56 -89 0
-63 -71 0
-63 -79 0
-63 -89 0
-71 -79 0
-71 -89 0
-79 -89 0
-6 -16 0
-6 -29 0
-6 -47 0
-6 -57 0
-6 -75 0
-6 -85 0
-6 -92 0
-16 -29 0
-16 -47 0
-16 -57 0
-16 -75 0
-16 -85 0
-16 -92 0
-29 -47 0
-29 -57 0
-29 -75 0
-29 -85 0
-29 -92 0
-47 -57 0
-47 -75 0
-47 -85 0
-47 -92 0
-57 -75 0
-57 -85 0
-57 -92 0
-75 -85 0
-75 -92 0
-85 -92 0
-7 -10 0
-7 -24 0
-7 -30 0
-7 -42 0
-7 -48 0
-7 -58 0
-7 -66 0
-7 -72 0
-7 -76 0
-7 -80 0
-10 -24 0
-10 -30 0
-10 -42 0
-10 -48 0
-10 -58 0
-10 -66 0
-10 -72 0
-10 -76 0
-10 -80 0
-24 -30 0
-24 -42 0
-24 -48 0
-24 -58 0
-24 -66 0
-24 -72 0
-24 -76 0
-24 -80 0
-30 -42 0
-30 -48 0
-30 -58 0
-30 -66 0
-30 -72 0
-30 -76 0
-30 -80 0
-42 -48 0
-42 -58 0
-42 -66 0
-42 -72 0
-42 -76 0
-42 -80 0
-48 -58 0
-48 -66 0
-48 -72 0
-48 -76 0
-48 -80 0
-58 -66 0
-58 -72 0
-58 -76 0
-58 -80 0
-66 -72 0
-66 -76 0
-66 -80 0
-72 -76 0
-72 -80 0
-76 -80 0
